predicate fzn_all_different_int(array [int] of var int: x);
array [1..2] of int: X_INTRODUCED_44_ = [1,-1];
var 1..14: X_INTRODUCED_0_;
var 1..14: X_INTRODUCED_1_;
var 1..14: X_INTRODUCED_2_;
var 1..14: X_INTRODUCED_3_;
var 1..14: X_INTRODUCED_4_;
var 1..14: X_INTRODUCED_5_;
var 1..14: X_INTRODUCED_6_;
var 1..14: X_INTRODUCED_7_;
var 1..14: X_INTRODUCED_8_;
var 1..14: X_INTRODUCED_9_;
var 1..14: X_INTRODUCED_10_;
var 1..14: X_INTRODUCED_11_;
var 1..14: X_INTRODUCED_12_;
var 1..14: X_INTRODUCED_13_;
var 2..15: X_INTRODUCED_14_:: is_defined_var;
var 3..16: X_INTRODUCED_15_:: is_defined_var;
var 4..17: X_INTRODUCED_16_:: is_defined_var;
var 5..18: X_INTRODUCED_17_:: is_defined_var;
var 6..19: X_INTRODUCED_18_:: is_defined_var;
var 7..20: X_INTRODUCED_19_:: is_defined_var;
var 8..21: X_INTRODUCED_20_:: is_defined_var;
var 9..22: X_INTRODUCED_21_:: is_defined_var;
var 10..23: X_INTRODUCED_22_:: is_defined_var;
var 11..24: X_INTRODUCED_23_:: is_defined_var;
var 12..25: X_INTRODUCED_24_:: is_defined_var;
var 13..26: X_INTRODUCED_25_:: is_defined_var;
var 14..27: X_INTRODUCED_26_:: is_defined_var;
var 15..28: X_INTRODUCED_27_:: is_defined_var;
var 0..13: X_INTRODUCED_28_:: is_defined_var;
var -1..12: X_INTRODUCED_29_:: is_defined_var;
var -2..11: X_INTRODUCED_30_:: is_defined_var;
var -3..10: X_INTRODUCED_31_:: is_defined_var;
var -4..9: X_INTRODUCED_32_:: is_defined_var;
var -5..8: X_INTRODUCED_33_:: is_defined_var;
var -6..7: X_INTRODUCED_34_:: is_defined_var;
var -7..6: X_INTRODUCED_35_:: is_defined_var;
var -8..5: X_INTRODUCED_36_:: is_defined_var;
var -9..4: X_INTRODUCED_37_:: is_defined_var;
var -10..3: X_INTRODUCED_38_:: is_defined_var;
var -11..2: X_INTRODUCED_39_:: is_defined_var;
var -12..1: X_INTRODUCED_40_:: is_defined_var;
var -13..0: X_INTRODUCED_41_:: is_defined_var;
array [1..14] of var int: q:: output_array([1..14]) = [X_INTRODUCED_0_,X_INTRODUCED_1_,X_INTRODUCED_2_,X_INTRODUCED_3_,X_INTRODUCED_4_,X_INTRODUCED_5_,X_INTRODUCED_6_,X_INTRODUCED_7_,X_INTRODUCED_8_,X_INTRODUCED_9_,X_INTRODUCED_10_,X_INTRODUCED_11_,X_INTRODUCED_12_,X_INTRODUCED_13_];
array [1..14] of var int: q_plus_i = [X_INTRODUCED_14_,X_INTRODUCED_15_,X_INTRODUCED_16_,X_INTRODUCED_17_,X_INTRODUCED_18_,X_INTRODUCED_19_,X_INTRODUCED_20_,X_INTRODUCED_21_,X_INTRODUCED_22_,X_INTRODUCED_23_,X_INTRODUCED_24_,X_INTRODUCED_25_,X_INTRODUCED_26_,X_INTRODUCED_27_];
array [1..14] of var int: q_minus_i = [X_INTRODUCED_28_,X_INTRODUCED_29_,X_INTRODUCED_30_,X_INTRODUCED_31_,X_INTRODUCED_32_,X_INTRODUCED_33_,X_INTRODUCED_34_,X_INTRODUCED_35_,X_INTRODUCED_36_,X_INTRODUCED_37_,X_INTRODUCED_38_,X_INTRODUCED_39_,X_INTRODUCED_40_,X_INTRODUCED_41_];
constraint int_lin_eq(X_INTRODUCED_44_,[X_INTRODUCED_14_,X_INTRODUCED_0_],1):: defines_var(X_INTRODUCED_14_);
constraint int_lin_eq(X_INTRODUCED_44_,[X_INTRODUCED_15_,X_INTRODUCED_1_],2):: defines_var(X_INTRODUCED_15_);
constraint int_lin_eq(X_INTRODUCED_44_,[X_INTRODUCED_16_,X_INTRODUCED_2_],3):: defines_var(X_INTRODUCED_16_);
constraint int_lin_eq(X_INTRODUCED_44_,[X_INTRODUCED_17_,X_INTRODUCED_3_],4):: defines_var(X_INTRODUCED_17_);
constraint int_lin_eq(X_INTRODUCED_44_,[X_INTRODUCED_18_,X_INTRODUCED_4_],5):: defines_var(X_INTRODUCED_18_);
constraint int_lin_eq(X_INTRODUCED_44_,[X_INTRODUCED_19_,X_INTRODUCED_5_],6):: defines_var(X_INTRODUCED_19_);
constraint int_lin_eq(X_INTRODUCED_44_,[X_INTRODUCED_20_,X_INTRODUCED_6_],7):: defines_var(X_INTRODUCED_20_);
constraint int_lin_eq(X_INTRODUCED_44_,[X_INTRODUCED_21_,X_INTRODUCED_7_],8):: defines_var(X_INTRODUCED_21_);
constraint int_lin_eq(X_INTRODUCED_44_,[X_INTRODUCED_22_,X_INTRODUCED_8_],9):: defines_var(X_INTRODUCED_22_);
constraint int_lin_eq(X_INTRODUCED_44_,[X_INTRODUCED_23_,X_INTRODUCED_9_],10):: defines_var(X_INTRODUCED_23_);
constraint int_lin_eq(X_INTRODUCED_44_,[X_INTRODUCED_24_,X_INTRODUCED_10_],11):: defines_var(X_INTRODUCED_24_);
constraint int_lin_eq(X_INTRODUCED_44_,[X_INTRODUCED_25_,X_INTRODUCED_11_],12):: defines_var(X_INTRODUCED_25_);
constraint int_lin_eq(X_INTRODUCED_44_,[X_INTRODUCED_26_,X_INTRODUCED_12_],13):: defines_var(X_INTRODUCED_26_);
constraint int_lin_eq(X_INTRODUCED_44_,[X_INTRODUCED_27_,X_INTRODUCED_13_],14):: defines_var(X_INTRODUCED_27_);
constraint int_lin_eq(X_INTRODUCED_44_,[X_INTRODUCED_28_,X_INTRODUCED_0_],-1):: defines_var(X_INTRODUCED_28_);
constraint int_lin_eq(X_INTRODUCED_44_,[X_INTRODUCED_29_,X_INTRODUCED_1_],-2):: defines_var(X_INTRODUCED_29_);
constraint int_lin_eq(X_INTRODUCED_44_,[X_INTRODUCED_30_,X_INTRODUCED_2_],-3):: defines_var(X_INTRODUCED_30_);
constraint int_lin_eq(X_INTRODUCED_44_,[X_INTRODUCED_31_,X_INTRODUCED_3_],-4):: defines_var(X_INTRODUCED_31_);
constraint int_lin_eq(X_INTRODUCED_44_,[X_INTRODUCED_32_,X_INTRODUCED_4_],-5):: defines_var(X_INTRODUCED_32_);
constraint int_lin_eq(X_INTRODUCED_44_,[X_INTRODUCED_33_,X_INTRODUCED_5_],-6):: defines_var(X_INTRODUCED_33_);
constraint int_lin_eq(X_INTRODUCED_44_,[X_INTRODUCED_34_,X_INTRODUCED_6_],-7):: defines_var(X_INTRODUCED_34_);
constraint int_lin_eq(X_INTRODUCED_44_,[X_INTRODUCED_35_,X_INTRODUCED_7_],-8):: defines_var(X_INTRODUCED_35_);
constraint int_lin_eq(X_INTRODUCED_44_,[X_INTRODUCED_36_,X_INTRODUCED_8_],-9):: defines_var(X_INTRODUCED_36_);
constraint int_lin_eq(X_INTRODUCED_44_,[X_INTRODUCED_37_,X_INTRODUCED_9_],-10):: defines_var(X_INTRODUCED_37_);
constraint int_lin_eq(X_INTRODUCED_44_,[X_INTRODUCED_38_,X_INTRODUCED_10_],-11):: defines_var(X_INTRODUCED_38_);
constraint int_lin_eq(X_INTRODUCED_44_,[X_INTRODUCED_39_,X_INTRODUCED_11_],-12):: defines_var(X_INTRODUCED_39_);
constraint int_lin_eq(X_INTRODUCED_44_,[X_INTRODUCED_40_,X_INTRODUCED_12_],-13):: defines_var(X_INTRODUCED_40_);
constraint int_lin_eq(X_INTRODUCED_44_,[X_INTRODUCED_41_,X_INTRODUCED_13_],-14):: defines_var(X_INTRODUCED_41_);
constraint fzn_all_different_int(q);
constraint fzn_all_different_int(q_plus_i);
constraint fzn_all_different_int(q_minus_i);
solve :: int_search(q,first_fail,indomain_min,complete) satisfy;
